0 360.0 170.0
1 355.0 170.0
2 350.0 170.0
3 345.0 170.0
4 340.0 170.0
5 335.0 170.0
6 330.0 170.0
7 325.0 170.0
8 320.0 170.0
9 315.0 170.0
10 310.0 170.0
11 305.0 170.0
12 300.0 170.0
13 295.0 170.0
14 290.0 170.0
15 285.0 170.0
16 280.0 170.0
17 275.0 170.0
18 270.0 170.0
19 250.0 170.0
20 250.0 170.0
21 245.0 170.0
22 240.0 170.0
23 235.0 170.0
24 230.0 170.0
25 225.0 170.0
26 220.0 170.0
27 215.0 170.0
28 210.0 170.0
29 205.0 170.0
30 200.0 170.0
31 195.0 170.0
32 190.0 170.0
33 185.0 170.0
34 180.0 170.0
35 175.0 170.0
36 170.0 170.0
37 165.0 170.0
38 160.0 170.0
39 155.0 170.0
40 150.0 170.0
41 145.0 170.0
42 140.0 170.0
43 135.0 170.0
44 130.0 170.0
45 125.0 170.0
46 120.0 170.0
47 115.0 170.0
48 110.0 170.0
49 105.0 170.0
50 100.0 170.0
51 95.0 170.0
52 90.0 170.0
53 85.0 170.0
54 80.0 170.0
55 75.0 170.0
56 70.0 170.0
57 65.0 170.0
58 60.0 170.0
59 55.0 170.0
60 50.0 170.0
61 47.14 170.0
62 44.29 170.0
63 41.43 170.0
64 38.57 170.0
65 35.71 170.0
66 32.86 170.0
67 30.0 170.0
68 30.0 167.14
69 30.0 164.29
70 30.0 161.43
71 30.0 158.57
72 30.0 155.71
73 30.0 152.86
74 30.0 150.0
75 32.86 150.0
76 35.71 150.0
77 38.57 150.0
78 41.43 150.0
79 44.29 150.0
80 47.14 150.0
81 50.0 150.0
82 55.0 150.0
83 60.0 150.0
84 65.0 150.0
85 70.0 150.0
86 75.0 150.0
87 80.0 150.0
88 85.0 150.0
89 90.0 150.0
90 95.0 150.0
91 100.0 150.0
92 105.0 150.0
93 110.0 150.0
94 115.0 150.0
95 120.0 150.0
96 125.0 150.0
97 130.0 150.0
98 135.0 150.0
99 140.0 150.0
100 145.0 150.0
101 150.0 150.0
102 155.0 150.0
103 160.0 150.0
104 165.0 150.0
105 170.0 150.0
106 175.0 150.0
107 180.0 150.0
108 185.0 150.0
109 190.0 150.0
110 195.0 150.0
111 200.0 150.0
112 205.0 150.0
113 210.0 150.0
114 215.0 150.0
115 220.0 150.0
116 225.0 150.0
117 230.0 150.0
118 235.0 150.0
119 240.0 150.0
120 245.0 150.0
121 250.0 150.0
122 252.86 150.0
123 255.71 150.0
124 258.57 150.0
125 261.43 150.0
126 264.29 150.0
127 267.14 150.0
128 270.0 150.0
129 270.0 147.14
130 270.0 144.29
131 270.0 141.43
132 270.0 138.57
133 270.0 135.71
134 270.0 132.86
135 270.0 130.0
136 267.14 130.0
137 264.29 130.0
138 261.43 130.0
139 258.57 130.0
140 255.71 130.0
141 252.86 130.0
142 250.0 130.0
143 245.0 130.0
144 240.0 130.0
145 235.0 130.0
146 230.0 130.0
147 225.0 130.0
148 220.0 130.0
149 215.0 130.0
150 210.0 130.0
151 205.0 130.0
152 200.0 130.0
153 195.0 130.0
154 190.0 130.0
155 185.0 130.0
156 180.0 130.0
157 175.0 130.0
158 170.0 130.0
159 165.0 130.0
160 160.0 130.0
161 155.0 130.0
162 150.0 130.0
163 145.0 130.0
164 140.0 130.0
165 135.0 130.0
166 130.0 130.0
167 125.0 130.0
168 120.0 130.0
169 115.0 130.0
170 110.0 130.0
171 105.0 130.0
172 100.0 130.0
173 95.0 130.0
174 90.0 130.0
175 85.0 130.0
176 80.0 130.0
177 75.0 130.0
178 70.0 130.0
179 65.0 130.0
180 60.0 130.0
181 55.0 130.0
182 50.0 130.0
183 45.0 130.0
184 40.0 130.0
185 35.0 130.0
186 30.0 130.0
187 27.14 130.0
188 24.29 130.0
189 21.43 130.0
190 18.57 130.0
191 15.71 130.0
192 12.86 130.0
193 10.0 130.0
194 10.0 132.86
195 10.0 135.71
196 10.0 138.57
197 10.0 141.43
198 10.0 144.29
199 10.0 147.14
200 10.0 150.0
201 10.0 155.0
202 10.0 160.0
203 10.0 165.0
204 10.0 170.0
205 10.0 172.86
206 10.0 175.71
207 10.0 178.57
208 10.0 181.43
209 10.0 184.29
210 10.0 187.14
211 10.0 190.0
212 12.86 190.0
213 15.71 190.0
214 18.57 190.0
215 21.43 190.0
216 24.29 190.0
217 27.14 190.0
218 30.0 190.0
219 35.0 190.0
220 40.0 190.0
221 45.0 190.0
222 50.0 190.0
223 55.0 190.0
224 60.0 190.0
225 65.0 190.0
226 70.0 190.0
227 75.0 190.0
228 80.0 190.0
229 85.0 190.0
230 90.0 190.0
231 95.0 190.0
232 100.0 190.0
233 105.0 190.0
234 110.0 190.0
235 115.0 190.0
236 120.0 190.0
237 125.0 190.0
238 130.0 190.0
239 135.0 190.0
240 140.0 190.0
241 145.0 190.0
242 150.0 190.0
243 155.0 190.0
244 160.0 190.0
245 165.0 190.0
246 170.0 190.0
247 175.0 190.0
248 180.0 190.0
249 185.0 190.0
250 190.0 190.0
251 195.0 190.0
252 200.0 190.0
253 205.0 190.0
254 210.0 190.0
255 215.0 190.0
256 220.0 190.0
257 225.0 190.0
258 230.0 190.0
259 235.0 190.0
260 240.0 190.0
261 245.0 190.0
262 250.0 190.0
263 255.0 190.0
264 260.0 190.0
265 265.0 190.0
266 270.0 190.0
267 275.0 190.0
268 280.0 190.0
269 285.0 190.0
270 290.0 190.0
271 295.0 190.0
272 300.0 190.0
273 305.0 190.0
274 310.0 190.0
275 315.0 190.0
276 320.0 190.0
277 325.0 190.0
278 330.0 190.0
279 335.0 190.0
280 340.0 190.0
281 345.0 190.0
282 350.0 190.0
283 355.0 190.0
284 360.0 190.0
285 365.0 190.0
286 370.0 190.0
287 375.0 190.0
288 380.0 190.0
289 385.0 190.0
290 390.0 190.0
291 395.0 190.0
292 400.0 190.0
293 405.0 190.0
294 410.0 190.0
295 415.0 190.0
296 420.0 190.0
297 425.0 190.0
298 430.0 190.0
299 435.0 190.0
300 440.0 190.0
301 445.0 190.0
302 450.0 190.0
303 452.86 190.0
304 455.71 190.0
305 458.57 190.0
306 461.43 190.0
307 464.29 190.0
308 467.14 190.0
309 470.0 190.0
310 470.0 187.14
311 470.0 184.29
312 470.0 181.43
313 470.0 178.57
314 470.0 175.71
315 470.0 172.86
316 470.0 170.0
317 467.14 170.0
318 464.29 170.0
319 461.43 170.0
320 458.57 170.0
321 455.71 170.0
322 452.86 170.0
323 450.0 170.0
324 445.0 170.0
325 440.0 170.0
326 435.0 170.0
327 430.0 170.0
328 425.0 170.0
329 420.0 170.0
330 415.0 170.0
331 410.0 170.0
332 405.0 170.0
333 400.0 170.0
334 395.0 170.0
335 390.0 170.0
336 385.0 170.0
337 380.0 170.0
338 375.0 170.0
339 370.0 170.0
0 365.0 170.0
